Route #1: 75 68 4 52 34 46 67 26
Route #2: 17 51 6 45 29 27 13 54 19 35 8
Route #3: 40 11 14 53 7 5 48
Route #4: 12 65 66 59 15 37 47 30 2
Route #5: 38 57 20 70 36 69 21 28 74
Route #6: 58 10 31 72 33 73 62 22 61 71 60
Route #7: 39 9 32 49 23 41 43 1 63 16
Route #8: 64 42 56 24 18 55 25 50 44 3
Cost 1049
